
Gurobi 13.0.2 (win64) logging started Thu Jul 23 08:05:13 2026

Set parameter LogFile to value "E:\codes\ExactEBRP\results\gf_cplex_equivalent_gurobi_replica_round28\runs\stage3__V12_M2__c2_paper__300s\external\native_logs\L2.0.1.0.0.1.0.0_lp.gurobi.log"
Gurobi Optimizer version 13.0.2 build v13.0.2rc1 (win64 - Windows 10.0 (19045.2))

CPU model: 12th Gen Intel(R) Core(TM) i7-12700KF, instruction set [SSE2|AVX|AVX2]
Thread count: 12 physical cores, 20 logical processors, using up to 1 threads

Non-default parameters:
TimeLimit  2.7203389930000003e+02
MIPGap  0
MIPGapAbs  0
LogToConsole  0
Threads  1

Optimize a model with 11351 rows, 1034 columns and 113600 nonzeros (Min)
Model fingerprint: 0x84780b6e
Model has 13 linear objective coefficients
Coefficient statistics:
  Matrix range     [5e-05, 1e+05]
  Objective range  [5e-05, 1e+00]
  Bounds range     [4e-01, 3e+02]
  RHS range        [2e-01, 1e+06]

Presolve removed 426 rows and 50 columns
Presolve time: 0.05s
Presolved: 984 rows, 11898 columns, 112452 nonzeros

Iteration    Objective       Primal Inf.    Dual Inf.      Time
       0      handle free variables                          0s

Solved in 2309 iterations and 0.19 seconds (0.71 work units)
Infeasible model

User-callback calls 2454, time in user-callback 0.00 sec
